\ LP format - for model browsing. Use MPS format to capture full model detail.
Minimize
  - 6800 l1 - 5818 l2 - 6373 l3 - 7896.99 l4 - 7080 l5 - 7080 l6
Subject To
 c1: 550 l1 + 630 l2 + 630 l3 + 682.359 l4 + 495.6 l5 + 495.6 l6 <= 630
 c2: 416.667 l1 + 521.667 l2 + 509.1667 l3 + 354 l5 + 354 l6 <= 600
 c3: l1 + l2 + l3 + l4 + l5 + l6 = 1
Bounds
End
